p cnf 967 2484
51 -700 -1 0
-51 700 0
-51 1 0
52 -51 -701 0
-52 51 0
-52 701 0
53 -702 -703 0
-53 702 0
-53 703 0
54 -53 -704 0
-54 53 0
-54 704 0
55 -705 -706 0
-55 705 0
-55 706 0
56 -8 -707 0
-56 8 0
-56 707 0
57 -56 -9 0
-57 56 0
-57 9 0
58 -708 -55 0
-58 708 0
-58 55 0
59 -10 -709 0
-59 10 0
-59 709 0
60 -59 -710 0
-60 59 0
-60 710 0
61 -711 -58 0
-61 711 0
-61 58 0
62 -12 -6 0
-62 12 0
-62 6 0
63 -62 -13 0
-63 62 0
-63 13 0
64 -712 -61 0
-64 712 0
-64 61 0
65 -12 -701 0
-65 12 0
-65 701 0
66 -65 -14 0
-66 65 0
-66 14 0
67 -713 -64 0
-67 713 0
-67 64 0
68 -714 -4 0
-68 714 0
-68 4 0
69 -68 -715 0
-69 68 0
-69 715 0
70 -716 -67 0
-70 716 0
-70 67 0
71 -16 -12 0
-71 16 0
-71 12 0
72 -71 -717 0
-72 71 0
-72 717 0
73 -718 -70 0
-73 718 0
-73 70 0
74 -719 -702 0
-74 719 0
-74 702 0
75 -74 -720 0
-75 74 0
-75 720 0
76 -721 -73 0
-76 721 0
-76 73 0
77 -18 -6 0
-77 18 0
-77 6 0
78 -77 -3 0
-78 77 0
-78 3 0
79 -722 -76 0
-79 722 0
-79 76 0
80 -19 -9 0
-80 19 0
-80 9 0
81 -80 -20 0
-81 80 0
-81 20 0
82 -723 -79 0
-82 723 0
-82 79 0
83 -724 -725 0
-83 724 0
-83 725 0
84 -83 -726 0
-84 83 0
-84 726 0
85 -727 -82 0
-85 727 0
-85 82 0
86 -24 -707 0
-86 24 0
-86 707 0
87 -86 -25 0
-87 86 0
-87 25 0
88 -728 -85 0
-88 728 0
-88 85 0
89 -729 -6 0
-89 729 0
-89 6 0
90 -89 -26 0
-90 89 0
-90 26 0
91 -730 -88 0
-91 730 0
-91 88 0
92 -27 -700 0
-92 27 0
-92 700 0
93 -92 -731 0
-93 92 0
-93 731 0
94 -732 -91 0
-94 732 0
-94 91 0
95 -733 -734 0
-95 733 0
-95 734 0
96 -95 -29 0
-96 95 0
-96 29 0
97 -735 -94 0
-97 735 0
-97 94 0
98 -719 -9 0
-98 719 0
-98 9 0
99 -98 -18 0
-99 98 0
-99 18 0
100 -736 -97 0
-100 736 0
-100 97 0
101 -737 -729 0
-101 737 0
-101 729 0
102 -101 -31 0
-102 101 0
-102 31 0
103 -738 -100 0
-103 738 0
-103 100 0
104 -32 -11 0
-104 32 0
-104 11 0
105 -104 -739 0
-105 104 0
-105 739 0
106 -740 -103 0
-106 740 0
-106 103 0
107 -22 -709 0
-107 22 0
-107 709 0
108 -107 -20 0
-108 107 0
-108 20 0
109 -741 -106 0
-109 741 0
-109 106 0
110 -35 -34 0
-110 35 0
-110 34 0
111 -110 -720 0
-111 110 0
-111 720 0
112 -742 -109 0
-112 742 0
-112 109 0
113 -36 -733 0
-113 36 0
-113 733 0
114 -113 -743 0
-114 113 0
-114 743 0
115 -744 -112 0
-115 744 0
-115 112 0
116 -16 -745 0
-116 16 0
-116 745 0
117 -116 -38 0
-117 116 0
-117 38 0
118 -746 -115 0
-118 746 0
-118 115 0
119 -31 -17 0
-119 31 0
-119 17 0
120 -119 -14 0
-120 119 0
-120 14 0
121 -747 -118 0
-121 747 0
-121 118 0
122 -748 -749 0
-122 748 0
-122 749 0
123 -122 -18 0
-123 122 0
-123 18 0
124 -750 -121 0
-124 750 0
-124 121 0
125 -21 -719 0
-125 21 0
-125 719 0
126 -125 -29 0
-126 125 0
-126 29 0
127 -751 -124 0
-127 751 0
-127 124 0
128 -39 -7 0
-128 39 0
-128 7 0
129 -128 -752 0
-129 128 0
-129 752 0
130 -753 -127 0
-130 753 0
-130 127 0
131 -737 -26 0
-131 737 0
-131 26 0
132 -131 -754 0
-132 131 0
-132 754 0
133 -755 -130 0
-133 755 0
-133 130 0
134 -27 -3 0
-134 27 0
-134 3 0
135 -134 -41 0
-135 134 0
-135 41 0
136 -756 -133 0
-136 756 0
-136 133 0
137 -720 -5 0
-137 720 0
-137 5 0
138 -137 -757 0
-138 137 0
-138 757 0
139 -758 -136 0
-139 758 0
-139 136 0
140 -759 -39 0
-140 759 0
-140 39 0
141 -140 -23 0
-141 140 0
-141 23 0
142 -760 -139 0
-142 760 0
-142 139 0
143 -761 -759 0
-143 761 0
-143 759 0
144 -143 -20 0
-144 143 0
-144 20 0
145 -762 -142 0
-145 762 0
-145 142 0
146 -763 -30 0
-146 763 0
-146 30 0
147 -146 -35 0
-147 146 0
-147 35 0
148 -764 -145 0
-148 764 0
-148 145 0
149 -765 -714 0
-149 765 0
-149 714 0
150 -149 -45 0
-150 149 0
-150 45 0
151 -766 -148 0
-151 766 0
-151 148 0
152 -767 -734 0
-152 767 0
-152 734 0
153 -152 -36 0
-153 152 0
-153 36 0
154 -768 -151 0
-154 768 0
-154 151 0
155 -28 -715 0
-155 28 0
-155 715 0
156 -155 -23 0
-156 155 0
-156 23 0
157 -769 -154 0
-157 769 0
-157 154 0
158 -770 -22 0
-158 770 0
-158 22 0
159 -158 -15 0
-159 158 0
-159 15 0
160 -771 -157 0
-160 771 0
-160 157 0
161 -724 -701 0
-161 724 0
-161 701 0
162 -161 -731 0
-162 161 0
-162 731 0
163 -772 -160 0
-163 772 0
-163 160 0
164 -729 -707 0
-164 729 0
-164 707 0
165 -164 -752 0
-165 164 0
-165 752 0
166 -773 -163 0
-166 773 0
-166 163 0
167 -774 -36 0
-167 774 0
-167 36 0
168 -167 -715 0
-168 167 0
-168 715 0
169 -775 -166 0
-169 775 0
-169 166 0
170 -765 -11 0
-170 765 0
-170 11 0
171 -170 -761 0
-171 170 0
-171 761 0
172 -776 -169 0
-172 776 0
-172 169 0
173 -41 -734 0
-173 41 0
-173 734 0
174 -173 -46 0
-174 173 0
-174 46 0
175 -777 -172 0
-175 777 0
-175 172 0
176 -32 -22 0
-176 32 0
-176 22 0
177 -176 -778 0
-177 176 0
-177 778 0
178 -779 -175 0
-178 779 0
-178 175 0
179 -743 -707 0
-179 743 0
-179 707 0
180 -179 -720 0
-180 179 0
-180 720 0
181 -780 -178 0
-181 780 0
-181 178 0
182 -35 -710 0
-182 35 0
-182 710 0
183 -182 -781 0
-183 182 0
-183 781 0
184 -782 -181 0
-184 782 0
-184 181 0
185 -731 -715 0
-185 731 0
-185 715 0
186 -185 -720 0
-186 185 0
-186 720 0
187 -783 -184 0
-187 783 0
-187 184 0
188 -770 -729 0
-188 770 0
-188 729 0
189 -188 -22 0
-189 188 0
-189 22 0
190 -784 -187 0
-190 784 0
-190 187 0
191 -714 -5 0
-191 714 0
-191 5 0
192 -191 -18 0
-192 191 0
-192 18 0
193 -785 -190 0
-193 785 0
-193 190 0
194 -47 -17 0
-194 47 0
-194 17 0
195 -194 -739 0
-195 194 0
-195 739 0
196 -786 -193 0
-196 786 0
-196 193 0
197 -709 -703 0
-197 709 0
-197 703 0
198 -197 -787 0
-198 197 0
-198 787 0
199 -788 -196 0
-199 788 0
-199 196 0
200 -749 -703 0
-200 749 0
-200 703 0
201 -200 -789 0
-201 200 0
-201 789 0
202 -790 -199 0
-202 790 0
-202 199 0
203 -791 -792 0
-203 791 0
-203 792 0
204 -203 -761 0
-204 203 0
-204 761 0
205 -793 -202 0
-205 793 0
-205 202 0
206 -42 -714 0
-206 42 0
-206 714 0
207 -206 -761 0
-207 206 0
-207 761 0
208 -794 -205 0
-208 794 0
-208 205 0
209 -774 -704 0
-209 774 0
-209 704 0
210 -209 -739 0
-210 209 0
-210 739 0
211 -795 -208 0
-211 795 0
-211 208 0
212 -748 -6 0
-212 748 0
-212 6 0
213 -212 -10 0
-213 212 0
-213 10 0
214 -796 -211 0
-214 796 0
-214 211 0
215 -797 -11 0
-215 797 0
-215 11 0
216 -215 -715 0
-216 215 0
-216 715 0
217 -798 -214 0
-217 798 0
-217 214 0
218 -47 -31 0
-218 47 0
-218 31 0
219 -218 -3 0
-219 218 0
-219 3 0
220 -799 -217 0
-220 799 0
-220 217 0
221 -25 -709 0
-221 25 0
-221 709 0
222 -221 -35 0
-222 221 0
-222 35 0
223 -800 -220 0
-223 800 0
-223 220 0
224 -49 -31 0
-224 49 0
-224 31 0
225 -224 -13 0
-225 224 0
-225 13 0
226 -801 -223 0
-226 801 0
-226 223 0
227 -17 -714 0
-227 17 0
-227 714 0
228 -227 -731 0
-228 227 0
-228 731 0
229 -802 -226 0
-229 802 0
-229 226 0
230 -743 -709 0
-230 743 0
-230 709 0
231 -230 -781 0
-231 230 0
-231 781 0
232 -803 -229 0
-232 803 0
-232 229 0
233 -763 -34 0
-233 763 0
-233 34 0
234 -233 -43 0
-234 233 0
-234 43 0
235 -804 -232 0
-235 804 0
-235 232 0
236 -48 -45 0
-236 48 0
-236 45 0
237 -236 -701 0
-237 236 0
-237 701 0
238 -805 -235 0
-238 805 0
-238 235 0
239 -778 -734 0
-239 778 0
-239 734 0
240 -239 -20 0
-240 239 0
-240 20 0
241 -806 -238 0
-241 806 0
-241 238 0
242 -807 -1 0
-242 807 0
-242 1 0
243 -242 -20 0
-243 242 0
-243 20 0
244 -808 -241 0
-244 808 0
-244 241 0
245 -31 -11 0
-245 31 0
-245 11 0
246 -245 -789 0
-246 245 0
-246 789 0
247 -809 -244 0
-247 809 0
-247 244 0
248 -38 -23 0
-248 38 0
-248 23 0
249 -248 -757 0
-249 248 0
-249 757 0
250 -810 -247 0
-250 810 0
-250 247 0
251 -16 -2 0
-251 16 0
-251 2 0
252 -251 -770 0
-252 251 0
-252 770 0
253 -811 -250 0
-253 811 0
-253 250 0
254 -39 -724 0
-254 39 0
-254 724 0
255 -254 -789 0
-255 254 0
-255 789 0
256 -812 -253 0
-256 812 0
-256 253 0
257 -17 -701 0
-257 17 0
-257 701 0
258 -257 -23 0
-258 257 0
-258 23 0
259 -813 -256 0
-259 813 0
-259 256 0
260 -733 -24 0
-260 733 0
-260 24 0
261 -260 -13 0
-261 260 0
-261 13 0
262 -814 -259 0
-262 814 0
-262 259 0
263 -17 -729 0
-263 17 0
-263 729 0
264 -263 -739 0
-264 263 0
-264 739 0
265 -815 -262 0
-265 815 0
-265 262 0
266 -12 -2 0
-266 12 0
-266 2 0
267 -266 -807 0
-267 266 0
-267 807 0
268 -816 -265 0
-268 816 0
-268 265 0
269 -42 -749 0
-269 42 0
-269 749 0
270 -269 -19 0
-270 269 0
-270 19 0
271 -817 -268 0
-271 817 0
-271 268 0
272 -45 -10 0
-272 45 0
-272 10 0
273 -272 -29 0
-273 272 0
-273 29 0
274 -818 -271 0
-274 818 0
-274 271 0
275 -47 -39 0
-275 47 0
-275 39 0
276 -275 -35 0
-276 275 0
-276 35 0
277 -819 -274 0
-277 819 0
-277 274 0
278 -47 -10 0
-278 47 0
-278 10 0
279 -278 -15 0
-279 278 0
-279 15 0
280 -820 -277 0
-280 820 0
-280 277 0
281 -43 -41 0
-281 43 0
-281 41 0
282 -281 -14 0
-282 281 0
-282 14 0
283 -821 -280 0
-283 821 0
-283 280 0
284 -34 -822 0
-284 34 0
-284 822 0
285 -284 -23 0
-285 284 0
-285 23 0
286 -823 -283 0
-286 823 0
-286 283 0
287 -824 -13 0
-287 824 0
-287 13 0
288 -287 -29 0
-288 287 0
-288 29 0
289 -825 -286 0
-289 825 0
-289 286 0
290 -797 -4 0
-290 797 0
-290 4 0
291 -290 -739 0
-291 290 0
-291 739 0
292 -826 -289 0
-292 826 0
-292 289 0
293 -774 -787 0
-293 774 0
-293 787 0
294 -293 -778 0
-294 293 0
-294 778 0
295 -827 -292 0
-295 827 0
-295 292 0
296 -34 -4 0
-296 34 0
-296 4 0
297 -296 -791 0
-297 296 0
-297 791 0
298 -828 -295 0
-298 828 0
-298 295 0
299 -27 -822 0
-299 27 0
-299 822 0
300 -299 -43 0
-300 299 0
-300 43 0
301 -829 -298 0
-301 829 0
-301 298 0
302 -737 -24 0
-302 737 0
-302 24 0
303 -302 -33 0
-303 302 0
-303 33 0
304 -830 -301 0
-304 830 0
-304 301 0
305 -791 -822 0
-305 791 0
-305 822 0
306 -305 -47 0
-306 305 0
-306 47 0
307 -831 -304 0
-307 831 0
-307 304 0
308 -42 -707 0
-308 42 0
-308 707 0
309 -308 -832 0
-309 308 0
-309 832 0
310 -833 -307 0
-310 833 0
-310 307 0
311 -791 -707 0
-311 791 0
-311 707 0
312 -311 -700 0
-312 311 0
-312 700 0
313 -834 -310 0
-313 834 0
-313 310 0
314 -748 -719 0
-314 748 0
-314 719 0
315 -314 -754 0
-315 314 0
-315 754 0
316 -835 -313 0
-316 835 0
-316 313 0
317 -743 -21 0
-317 743 0
-317 21 0
318 -317 -18 0
-318 317 0
-318 18 0
319 -836 -316 0
-319 836 0
-319 316 0
320 -39 -17 0
-320 39 0
-320 17 0
321 -320 -28 0
-321 320 0
-321 28 0
322 -837 -319 0
-322 837 0
-322 319 0
323 -8 -700 0
-323 8 0
-323 700 0
324 -323 -22 0
-324 323 0
-324 22 0
325 -838 -322 0
-325 838 0
-325 322 0
326 -38 -739 0
-326 38 0
-326 739 0
327 -326 -789 0
-327 326 0
-327 789 0
328 -839 -325 0
-328 839 0
-328 325 0
329 -6 -1 0
-329 6 0
-329 1 0
330 -329 -717 0
-330 329 0
-330 717 0
331 -840 -328 0
-331 840 0
-331 328 0
332 -824 -17 0
-332 824 0
-332 17 0
333 -332 -46 0
-333 332 0
-333 46 0
334 -841 -331 0
-334 841 0
-334 331 0
335 -5 -703 0
-335 5 0
-335 703 0
336 -335 -792 0
-336 335 0
-336 792 0
337 -842 -334 0
-337 842 0
-337 334 0
338 -27 -26 0
-338 27 0
-338 26 0
339 -338 -710 0
-339 338 0
-339 710 0
340 -843 -337 0
-340 843 0
-340 337 0
341 -25 -792 0
-341 25 0
-341 792 0
342 -341 -43 0
-342 341 0
-342 43 0
343 -844 -340 0
-343 844 0
-343 340 0
344 -24 -5 0
-344 24 0
-344 5 0
345 -344 -23 0
-345 344 0
-345 23 0
346 -845 -343 0
-346 845 0
-346 343 0
347 -26 -724 0
-347 26 0
-347 724 0
348 -347 -807 0
-348 347 0
-348 807 0
349 -846 -346 0
-349 846 0
-349 346 0
350 -38 -707 0
-350 38 0
-350 707 0
351 -350 -23 0
-351 350 0
-351 23 0
352 -847 -349 0
-352 847 0
-352 349 0
353 -702 -745 0
-353 702 0
-353 745 0
354 -353 -797 0
-354 353 0
-354 797 0
355 -848 -352 0
-355 848 0
-355 352 0
356 -44 -8 0
-356 44 0
-356 8 0
357 -356 -752 0
-357 356 0
-357 752 0
358 -849 -355 0
-358 849 0
-358 355 0
359 -77 -40 0
-359 77 0
-359 40 0
360 -850 -358 0
-360 850 0
-360 358 0
361 -797 -26 0
-361 797 0
-361 26 0
362 -361 -851 0
-362 361 0
-362 851 0
363 -852 -360 0
-363 852 0
-363 360 0
364 -765 -17 0
-364 765 0
-364 17 0
365 -364 -10 0
-365 364 0
-365 10 0
366 -853 -363 0
-366 853 0
-366 363 0
367 -39 -709 0
-367 39 0
-367 709 0
368 -367 -757 0
-368 367 0
-368 757 0
369 -854 -366 0
-369 854 0
-369 366 0
370 -40 -719 0
-370 40 0
-370 719 0
371 -370 -851 0
-371 370 0
-371 851 0
372 -855 -369 0
-372 855 0
-372 369 0
373 -749 -24 0
-373 749 0
-373 24 0
374 -373 -28 0
-374 373 0
-374 28 0
375 -856 -372 0
-375 856 0
-375 372 0
376 -50 -12 0
-376 50 0
-376 12 0
377 -376 -32 0
-377 376 0
-377 32 0
378 -857 -375 0
-378 857 0
-378 375 0
379 -725 -700 0
-379 725 0
-379 700 0
380 -379 -23 0
-380 379 0
-380 23 0
381 -858 -378 0
-381 858 0
-381 378 0
382 -7 -703 0
-382 7 0
-382 703 0
383 -382 -6 0
-383 382 0
-383 6 0
384 -859 -381 0
-384 859 0
-384 381 0
385 -50 -700 0
-385 50 0
-385 700 0
386 -385 -32 0
-386 385 0
-386 32 0
387 -860 -384 0
-387 860 0
-387 384 0
388 -42 -18 0
-388 42 0
-388 18 0
389 -388 -832 0
-389 388 0
-389 832 0
390 -861 -387 0
-390 861 0
-390 387 0
391 -770 -700 0
-391 770 0
-391 700 0
392 -391 -763 0
-392 391 0
-392 763 0
393 -862 -390 0
-393 862 0
-393 390 0
394 -39 -767 0
-394 39 0
-394 767 0
395 -394 -752 0
-395 394 0
-395 752 0
396 -863 -393 0
-396 863 0
-396 393 0
397 -34 -27 0
-397 34 0
-397 27 0
398 -397 -704 0
-398 397 0
-398 704 0
399 -864 -396 0
-399 864 0
-399 396 0
400 -749 -701 0
-400 749 0
-400 701 0
401 -400 -46 0
-401 400 0
-401 46 0
402 -865 -399 0
-402 865 0
-402 399 0
403 -28 -3 0
-403 28 0
-403 3 0
404 -403 -23 0
-404 403 0
-404 23 0
405 -866 -402 0
-405 866 0
-405 402 0
406 -47 -11 0
-406 47 0
-406 11 0
407 -406 -851 0
-407 406 0
-407 851 0
408 -867 -405 0
-408 867 0
-408 405 0
409 -36 -737 0
-409 36 0
-409 737 0
410 -409 -20 0
-410 409 0
-410 20 0
411 -868 -408 0
-411 868 0
-411 408 0
412 -710 -10 0
-412 710 0
-412 10 0
413 -412 -781 0
-413 412 0
-413 781 0
414 -869 -411 0
-414 869 0
-414 411 0
415 -822 -725 0
-415 822 0
-415 725 0
416 -415 -734 0
-416 415 0
-416 734 0
417 -870 -414 0
-417 870 0
-417 414 0
418 -767 -737 0
-418 767 0
-418 737 0
419 -418 -13 0
-419 418 0
-419 13 0
420 -871 -417 0
-420 871 0
-420 417 0
421 -807 -774 0
-421 807 0
-421 774 0
422 -421 -720 0
-422 421 0
-422 720 0
423 -872 -420 0
-423 872 0
-423 420 0
424 -774 -724 0
-424 774 0
-424 724 0
425 -424 -23 0
-425 424 0
-425 23 0
426 -873 -423 0
-426 873 0
-426 423 0
427 -743 -710 0
-427 743 0
-427 710 0
428 -427 -33 0
-428 427 0
-428 33 0
429 -874 -426 0
-429 874 0
-429 426 0
430 -44 -5 0
-430 44 0
-430 5 0
431 -430 -25 0
-431 430 0
-431 25 0
432 -875 -429 0
-432 875 0
-432 429 0
433 -31 -707 0
-433 31 0
-433 707 0
434 -433 -743 0
-434 433 0
-434 743 0
435 -876 -432 0
-435 876 0
-435 432 0
436 -33 -21 0
-436 33 0
-436 21 0
437 -436 -23 0
-437 436 0
-437 23 0
438 -877 -435 0
-438 877 0
-438 435 0
439 -36 -714 0
-439 36 0
-439 714 0
440 -439 -717 0
-440 439 0
-440 717 0
441 -878 -438 0
-441 878 0
-441 438 0
442 -48 -719 0
-442 48 0
-442 719 0
443 -442 -28 0
-443 442 0
-443 28 0
444 -879 -441 0
-444 879 0
-444 441 0
445 -38 -7 0
-445 38 0
-445 7 0
446 -445 -720 0
-446 445 0
-446 720 0
447 -880 -444 0
-447 880 0
-447 444 0
448 -4 -2 0
-448 4 0
-448 2 0
449 -448 -32 0
-449 448 0
-449 32 0
450 -881 -447 0
-450 881 0
-450 447 0
451 -45 -770 0
-451 45 0
-451 770 0
452 -451 -15 0
-452 451 0
-452 15 0
453 -882 -450 0
-453 882 0
-453 450 0
454 -765 -717 0
-454 765 0
-454 717 0
455 -454 -715 0
-455 454 0
-455 715 0
456 -883 -453 0
-456 883 0
-456 453 0
457 -42 -884 0
-457 42 0
-457 884 0
458 -457 -710 0
-458 457 0
-458 710 0
459 -885 -456 0
-459 885 0
-459 456 0
460 -38 -4 0
-460 38 0
-460 4 0
461 -460 -13 0
-461 460 0
-461 13 0
462 -886 -459 0
-462 886 0
-462 459 0
463 -748 -5 0
-463 748 0
-463 5 0
464 -463 -1 0
-464 463 0
-464 1 0
465 -887 -462 0
-465 887 0
-465 462 0
466 -770 -31 0
-466 770 0
-466 31 0
467 -466 -33 0
-467 466 0
-467 33 0
468 -888 -465 0
-468 888 0
-468 465 0
469 -39 -702 0
-469 39 0
-469 702 0
470 -469 -715 0
-470 469 0
-470 715 0
471 -889 -468 0
-471 889 0
-471 468 0
472 -43 -717 0
-472 43 0
-472 717 0
473 -472 -754 0
-473 472 0
-473 754 0
474 -890 -471 0
-474 890 0
-474 471 0
475 -27 -707 0
-475 27 0
-475 707 0
476 -475 -14 0
-476 475 0
-476 14 0
477 -891 -474 0
-477 891 0
-477 474 0
478 -719 -10 0
-478 719 0
-478 10 0
479 -478 -13 0
-479 478 0
-479 13 0
480 -892 -477 0
-480 892 0
-480 477 0
481 -704 -2 0
-481 704 0
-481 2 0
482 -481 -763 0
-482 481 0
-482 763 0
483 -893 -480 0
-483 893 0
-483 480 0
484 -9 -703 0
-484 9 0
-484 703 0
485 -484 -851 0
-485 484 0
-485 851 0
486 -894 -483 0
-486 894 0
-486 483 0
487 -40 -8 0
-487 40 0
-487 8 0
488 -487 -781 0
-488 487 0
-488 781 0
489 -895 -486 0
-489 895 0
-489 486 0
490 -18 -1 0
-490 18 0
-490 1 0
491 -490 -35 0
-491 490 0
-491 35 0
492 -896 -489 0
-492 896 0
-492 489 0
493 -717 -4 0
-493 717 0
-493 4 0
494 -493 -29 0
-494 493 0
-494 29 0
495 -897 -492 0
-495 897 0
-495 492 0
496 -765 -4 0
-496 765 0
-496 4 0
497 -496 -731 0
-497 496 0
-497 731 0
498 -898 -495 0
-498 898 0
-498 495 0
499 -33 -787 0
-499 33 0
-499 787 0
500 -499 -15 0
-500 499 0
-500 15 0
501 -899 -498 0
-501 899 0
-501 498 0
502 -759 -38 0
-502 759 0
-502 38 0
503 -502 -720 0
-503 502 0
-503 720 0
504 -900 -501 0
-504 900 0
-504 501 0
505 -774 -5 0
-505 774 0
-505 5 0
506 -505 -40 0
-506 505 0
-506 40 0
507 -901 -504 0
-507 901 0
-507 504 0
508 -902 -21 0
-508 902 0
-508 21 0
509 -508 -739 0
-509 508 0
-509 739 0
510 -903 -507 0
-510 903 0
-510 507 0
511 -724 -17 0
-511 724 0
-511 17 0
512 -511 -29 0
-512 511 0
-512 29 0
513 -904 -510 0
-513 904 0
-513 510 0
514 -48 -6 0
-514 48 0
-514 6 0
515 -514 -18 0
-515 514 0
-515 18 0
516 -905 -513 0
-516 905 0
-516 513 0
517 -11 -707 0
-517 11 0
-517 707 0
518 -517 -49 0
-518 517 0
-518 49 0
519 -906 -516 0
-519 906 0
-519 516 0
520 -36 -702 0
-520 36 0
-520 702 0
521 -520 -46 0
-521 520 0
-521 46 0
522 -907 -519 0
-522 907 0
-522 519 0
523 -765 -42 0
-523 765 0
-523 42 0
524 -523 -726 0
-524 523 0
-524 726 0
525 -908 -522 0
-525 908 0
-525 522 0
526 -791 -725 0
-526 791 0
-526 725 0
527 -526 -24 0
-527 526 0
-527 24 0
528 -909 -525 0
-528 909 0
-528 525 0
529 -44 -7 0
-529 44 0
-529 7 0
530 -529 -715 0
-530 529 0
-530 715 0
531 -910 -528 0
-531 910 0
-531 528 0
532 -902 -851 0
-532 902 0
-532 851 0
533 -532 -726 0
-533 532 0
-533 726 0
534 -911 -531 0
-534 911 0
-534 531 0
535 -774 -739 0
-535 774 0
-535 739 0
536 -535 -14 0
-536 535 0
-536 14 0
537 -912 -534 0
-537 912 0
-537 534 0
538 -791 -26 0
-538 791 0
-538 26 0
539 -538 -715 0
-539 538 0
-539 715 0
540 -913 -537 0
-540 913 0
-540 537 0
541 -37 -737 0
-541 37 0
-541 737 0
542 -541 -38 0
-542 541 0
-542 38 0
543 -914 -540 0
-543 914 0
-543 540 0
544 -748 -7 0
-544 748 0
-544 7 0
545 -544 -18 0
-545 544 0
-545 18 0
546 -915 -543 0
-546 915 0
-546 543 0
547 -22 -17 0
-547 22 0
-547 17 0
548 -547 -781 0
-548 547 0
-548 781 0
549 -916 -546 0
-549 916 0
-549 546 0
550 -724 -745 0
-550 724 0
-550 745 0
551 -550 -38 0
-551 550 0
-551 38 0
552 -917 -549 0
-552 917 0
-552 549 0
553 -725 -717 0
-553 725 0
-553 717 0
554 -553 -851 0
-554 553 0
-554 851 0
555 -918 -552 0
-555 918 0
-555 552 0
556 -778 -27 0
-556 778 0
-556 27 0
557 -556 -28 0
-557 556 0
-557 28 0
558 -919 -555 0
-558 919 0
-558 555 0
559 -50 -7 0
-559 50 0
-559 7 0
560 -559 -14 0
-560 559 0
-560 14 0
561 -920 -558 0
-561 920 0
-561 558 0
562 -28 -24 0
-562 28 0
-562 24 0
563 -562 -35 0
-563 562 0
-563 35 0
564 -921 -561 0
-564 921 0
-564 561 0
565 -50 -45 0
-565 50 0
-565 45 0
566 -565 -851 0
-566 565 0
-566 851 0
567 -922 -564 0
-567 922 0
-567 564 0
568 -49 -763 0
-568 49 0
-568 763 0
569 -568 -41 0
-569 568 0
-569 41 0
570 -923 -567 0
-570 923 0
-570 567 0
571 -767 -22 0
-571 767 0
-571 22 0
572 -571 -40 0
-572 571 0
-572 40 0
573 -924 -570 0
-573 924 0
-573 570 0
574 -767 -16 0
-574 767 0
-574 16 0
575 -574 -807 0
-575 574 0
-575 807 0
576 -925 -573 0
-576 925 0
-576 573 0
577 -161 -49 0
-577 161 0
-577 49 0
578 -926 -576 0
-578 926 0
-578 576 0
579 -824 -28 0
-579 824 0
-579 28 0
580 -579 -832 0
-580 579 0
-580 832 0
581 -927 -578 0
-581 927 0
-581 578 0
582 -737 -8 0
-582 737 0
-582 8 0
583 -582 -739 0
-583 582 0
-583 739 0
584 -928 -581 0
-584 928 0
-584 581 0
585 -797 -734 0
-585 797 0
-585 734 0
586 -585 -824 0
-586 585 0
-586 824 0
587 -929 -584 0
-587 929 0
-587 584 0
588 -48 -707 0
-588 48 0
-588 707 0
589 -588 -47 0
-589 588 0
-589 47 0
590 -930 -587 0
-590 930 0
-590 587 0
591 -19 -2 0
-591 19 0
-591 2 0
592 -591 -754 0
-592 591 0
-592 754 0
593 -931 -590 0
-593 931 0
-593 590 0
594 -47 -745 0
-594 47 0
-594 745 0
595 -594 -717 0
-595 594 0
-595 717 0
596 -932 -593 0
-596 932 0
-596 593 0
597 -733 -5 0
-597 733 0
-597 5 0
598 -597 -22 0
-598 597 0
-598 22 0
599 -933 -596 0
-599 933 0
-599 596 0
600 -30 -729 0
-600 30 0
-600 729 0
601 -600 -832 0
-601 600 0
-601 832 0
602 -934 -599 0
-602 934 0
-602 599 0
603 -379 -739 0
-603 379 0
-603 739 0
604 -935 -602 0
-604 935 0
-604 602 0
605 -749 -12 0
-605 749 0
-605 12 0
606 -605 -11 0
-606 605 0
-606 11 0
607 -936 -604 0
-607 936 0
-607 604 0
608 -789 -17 0
-608 789 0
-608 17 0
609 -608 -29 0
-609 608 0
-609 29 0
610 -937 -607 0
-610 937 0
-610 607 0
611 -774 -792 0
-611 774 0
-611 792 0
612 -611 -851 0
-612 611 0
-612 851 0
613 -938 -610 0
-613 938 0
-613 610 0
614 -8 -2 0
-614 8 0
-614 2 0
615 -614 -724 0
-615 614 0
-615 724 0
616 -939 -613 0
-616 939 0
-616 613 0
617 -16 -5 0
-617 16 0
-617 5 0
618 -617 -22 0
-618 617 0
-618 22 0
619 -940 -616 0
-619 940 0
-619 616 0
620 -754 -8 0
-620 754 0
-620 8 0
621 -620 -807 0
-621 620 0
-621 807 0
622 -941 -619 0
-622 941 0
-622 619 0
623 -822 -702 0
-623 822 0
-623 702 0
624 -623 -797 0
-624 623 0
-624 797 0
625 -942 -622 0
-625 942 0
-625 622 0
626 -792 -729 0
-626 792 0
-626 729 0
627 -626 -781 0
-627 626 0
-627 781 0
628 -943 -625 0
-628 943 0
-628 625 0
629 -45 -724 0
-629 45 0
-629 724 0
630 -629 -792 0
-630 629 0
-630 792 0
631 -944 -628 0
-631 944 0
-631 628 0
632 -778 -733 0
-632 778 0
-632 733 0
633 -632 -38 0
-633 632 0
-633 38 0
634 -945 -631 0
-634 945 0
-634 631 0
635 -765 -700 0
-635 765 0
-635 700 0
636 -635 -787 0
-636 635 0
-636 787 0
637 -946 -634 0
-637 946 0
-637 634 0
638 -32 -1 0
-638 32 0
-638 1 0
639 -638 -715 0
-639 638 0
-639 715 0
640 -947 -637 0
-640 947 0
-640 637 0
641 -34 -703 0
-641 34 0
-641 703 0
642 -641 -24 0
-642 641 0
-642 24 0
643 -948 -640 0
-643 948 0
-643 640 0
644 -617 -748 0
-644 617 0
-644 748 0
645 -949 -643 0
-645 949 0
-645 643 0
646 -48 -44 0
-646 48 0
-646 44 0
647 -646 -763 0
-647 646 0
-647 763 0
648 -950 -645 0
-648 950 0
-648 645 0
649 -791 -704 0
-649 791 0
-649 704 0
650 -649 -32 0
-650 649 0
-650 32 0
651 -951 -648 0
-651 951 0
-651 648 0
652 -792 -14 0
-652 792 0
-652 14 0
653 -652 -29 0
-653 652 0
-653 29 0
654 -952 -651 0
-654 952 0
-654 651 0
655 -43 -824 0
-655 43 0
-655 824 0
656 -655 -15 0
-656 655 0
-656 15 0
657 -953 -654 0
-657 953 0
-657 654 0
658 -19 -16 0
-658 19 0
-658 16 0
659 -658 -26 0
-659 658 0
-659 26 0
660 -954 -657 0
-660 954 0
-660 657 0
661 -11 -709 0
-661 11 0
-661 709 0
662 -661 -20 0
-662 661 0
-662 20 0
663 -955 -660 0
-663 955 0
-663 660 0
664 -42 -21 0
-664 42 0
-664 21 0
665 -664 -807 0
-665 664 0
-665 807 0
666 -956 -663 0
-666 956 0
-666 663 0
667 -710 -745 0
-667 710 0
-667 745 0
668 -667 -41 0
-668 667 0
-668 41 0
669 -957 -666 0
-669 957 0
-669 666 0
670 -42 -8 0
-670 42 0
-670 8 0
671 -670 -824 0
-671 670 0
-671 824 0
672 -958 -669 0
-672 958 0
-672 669 0
673 -752 -715 0
-673 752 0
-673 715 0
674 -673 -13 0
-674 673 0
-674 13 0
675 -959 -672 0
-675 959 0
-675 672 0
676 -797 -19 0
-676 797 0
-676 19 0
677 -676 -13 0
-677 676 0
-677 13 0
678 -960 -675 0
-678 960 0
-678 675 0
679 -797 -770 0
-679 797 0
-679 770 0
680 -679 -18 0
-680 679 0
-680 18 0
681 -961 -678 0
-681 961 0
-681 678 0
682 -770 -12 0
-682 770 0
-682 12 0
683 -682 -15 0
-683 682 0
-683 15 0
684 -962 -681 0
-684 962 0
-684 681 0
685 -44 -745 0
-685 44 0
-685 745 0
686 -685 -19 0
-686 685 0
-686 19 0
687 -963 -684 0
-687 963 0
-687 684 0
688 -902 -11 0
-688 902 0
-688 11 0
689 -688 -33 0
-689 688 0
-689 33 0
690 -964 -687 0
-690 964 0
-690 687 0
691 -6 -4 0
-691 6 0
-691 4 0
692 -691 -49 0
-692 691 0
-692 49 0
693 -965 -690 0
-693 965 0
-693 690 0
694 -884 -1 0
-694 884 0
-694 1 0
695 -694 -763 0
-695 694 0
-695 763 0
696 -966 -693 0
-696 966 0
-696 693 0
697 -45 -778 0
-697 45 0
-697 778 0
698 -697 -28 0
-698 697 0
-698 28 0
699 -967 -696 0
-699 967 0
-699 696 0
-700 -2 0
700 2 0
-701 -3 0
701 3 0
-702 -5 0
702 5 0
-703 -4 0
703 4 0
-704 -6 0
704 6 0
-705 -54 0
705 54 0
-706 -52 0
706 52 0
-707 -7 0
707 7 0
-708 -57 0
708 57 0
-709 -8 0
709 8 0
-710 -11 0
710 11 0
-711 -60 0
711 60 0
-712 -63 0
712 63 0
-713 -66 0
713 66 0
-714 -10 0
714 10 0
-715 -15 0
715 15 0
-716 -69 0
716 69 0
-717 -9 0
717 9 0
-718 -72 0
718 72 0
-719 -17 0
719 17 0
-720 -14 0
720 14 0
-721 -75 0
721 75 0
-722 -78 0
722 78 0
-723 -81 0
723 81 0
-724 -22 0
724 22 0
-725 -21 0
725 21 0
-726 -23 0
726 23 0
-727 -84 0
727 84 0
-728 -87 0
728 87 0
-729 -16 0
729 16 0
-730 -90 0
730 90 0
-731 -28 0
731 28 0
-732 -93 0
732 93 0
-733 -26 0
733 26 0
-734 -12 0
734 12 0
-735 -96 0
735 96 0
-736 -99 0
736 99 0
-737 -30 0
737 30 0
-738 -102 0
738 102 0
-739 -33 0
739 33 0
-740 -105 0
740 105 0
-741 -108 0
741 108 0
-742 -111 0
742 111 0
-743 -37 0
743 37 0
-744 -114 0
744 114 0
-745 -1 0
745 1 0
-746 -117 0
746 117 0
-747 -120 0
747 120 0
-748 -39 0
748 39 0
-749 -27 0
749 27 0
-750 -123 0
750 123 0
-751 -126 0
751 126 0
-752 -35 0
752 35 0
-753 -129 0
753 129 0
-754 -40 0
754 40 0
-755 -132 0
755 132 0
-756 -135 0
756 135 0
-757 -13 0
757 13 0
-758 -138 0
758 138 0
-759 -42 0
759 42 0
-760 -141 0
760 141 0
-761 -43 0
761 43 0
-762 -144 0
762 144 0
-763 -38 0
763 38 0
-764 -147 0
764 147 0
-765 -44 0
765 44 0
-766 -150 0
766 150 0
-767 -34 0
767 34 0
-768 -153 0
768 153 0
-769 -156 0
769 156 0
-770 -32 0
770 32 0
-771 -159 0
771 159 0
-772 -162 0
772 162 0
-773 -165 0
773 165 0
-774 -45 0
774 45 0
-775 -168 0
775 168 0
-776 -171 0
776 171 0
-777 -174 0
777 174 0
-778 -31 0
778 31 0
-779 -177 0
779 177 0
-780 -180 0
780 180 0
-781 -29 0
781 29 0
-782 -183 0
782 183 0
-783 -186 0
783 186 0
-784 -189 0
784 189 0
-785 -192 0
785 192 0
-786 -195 0
786 195 0
-787 -25 0
787 25 0
-788 -198 0
788 198 0
-789 -20 0
789 20 0
-790 -201 0
790 201 0
-791 -48 0
791 48 0
-792 -18 0
792 18 0
-793 -204 0
793 204 0
-794 -207 0
794 207 0
-795 -210 0
795 210 0
-796 -213 0
796 213 0
-797 -47 0
797 47 0
-798 -216 0
798 216 0
-799 -219 0
799 219 0
-800 -222 0
800 222 0
-801 -225 0
801 225 0
-802 -228 0
802 228 0
-803 -231 0
803 231 0
-804 -234 0
804 234 0
-805 -237 0
805 237 0
-806 -240 0
806 240 0
-807 -49 0
807 49 0
-808 -243 0
808 243 0
-809 -246 0
809 246 0
-810 -249 0
810 249 0
-811 -252 0
811 252 0
-812 -255 0
812 255 0
-813 -258 0
813 258 0
-814 -261 0
814 261 0
-815 -264 0
815 264 0
-816 -267 0
816 267 0
-817 -270 0
817 270 0
-818 -273 0
818 273 0
-819 -276 0
819 276 0
-820 -279 0
820 279 0
-821 -282 0
821 282 0
-822 -24 0
822 24 0
-823 -285 0
823 285 0
-824 -36 0
824 36 0
-825 -288 0
825 288 0
-826 -291 0
826 291 0
-827 -294 0
827 294 0
-828 -297 0
828 297 0
-829 -300 0
829 300 0
-830 -303 0
830 303 0
-831 -306 0
831 306 0
-832 -46 0
832 46 0
-833 -309 0
833 309 0
-834 -312 0
834 312 0
-835 -315 0
835 315 0
-836 -318 0
836 318 0
-837 -321 0
837 321 0
-838 -324 0
838 324 0
-839 -327 0
839 327 0
-840 -330 0
840 330 0
-841 -333 0
841 333 0
-842 -336 0
842 336 0
-843 -339 0
843 339 0
-844 -342 0
844 342 0
-845 -345 0
845 345 0
-846 -348 0
846 348 0
-847 -351 0
847 351 0
-848 -354 0
848 354 0
-849 -357 0
849 357 0
-850 -359 0
850 359 0
-851 -41 0
851 41 0
-852 -362 0
852 362 0
-853 -365 0
853 365 0
-854 -368 0
854 368 0
-855 -371 0
855 371 0
-856 -374 0
856 374 0
-857 -377 0
857 377 0
-858 -380 0
858 380 0
-859 -383 0
859 383 0
-860 -386 0
860 386 0
-861 -389 0
861 389 0
-862 -392 0
862 392 0
-863 -395 0
863 395 0
-864 -398 0
864 398 0
-865 -401 0
865 401 0
-866 -404 0
866 404 0
-867 -407 0
867 407 0
-868 -410 0
868 410 0
-869 -413 0
869 413 0
-870 -416 0
870 416 0
-871 -419 0
871 419 0
-872 -422 0
872 422 0
-873 -425 0
873 425 0
-874 -428 0
874 428 0
-875 -431 0
875 431 0
-876 -434 0
876 434 0
-877 -437 0
877 437 0
-878 -440 0
878 440 0
-879 -443 0
879 443 0
-880 -446 0
880 446 0
-881 -449 0
881 449 0
-882 -452 0
882 452 0
-883 -455 0
883 455 0
-884 -19 0
884 19 0
-885 -458 0
885 458 0
-886 -461 0
886 461 0
-887 -464 0
887 464 0
-888 -467 0
888 467 0
-889 -470 0
889 470 0
-890 -473 0
890 473 0
-891 -476 0
891 476 0
-892 -479 0
892 479 0
-893 -482 0
893 482 0
-894 -485 0
894 485 0
-895 -488 0
895 488 0
-896 -491 0
896 491 0
-897 -494 0
897 494 0
-898 -497 0
898 497 0
-899 -500 0
899 500 0
-900 -503 0
900 503 0
-901 -506 0
901 506 0
-902 -50 0
902 50 0
-903 -509 0
903 509 0
-904 -512 0
904 512 0
-905 -515 0
905 515 0
-906 -518 0
906 518 0
-907 -521 0
907 521 0
-908 -524 0
908 524 0
-909 -527 0
909 527 0
-910 -530 0
910 530 0
-911 -533 0
911 533 0
-912 -536 0
912 536 0
-913 -539 0
913 539 0
-914 -542 0
914 542 0
-915 -545 0
915 545 0
-916 -548 0
916 548 0
-917 -551 0
917 551 0
-918 -554 0
918 554 0
-919 -557 0
919 557 0
-920 -560 0
920 560 0
-921 -563 0
921 563 0
-922 -566 0
922 566 0
-923 -569 0
923 569 0
-924 -572 0
924 572 0
-925 -575 0
925 575 0
-926 -577 0
926 577 0
-927 -580 0
927 580 0
-928 -583 0
928 583 0
-929 -586 0
929 586 0
-930 -589 0
930 589 0
-931 -592 0
931 592 0
-932 -595 0
932 595 0
-933 -598 0
933 598 0
-934 -601 0
934 601 0
-935 -603 0
935 603 0
-936 -606 0
936 606 0
-937 -609 0
937 609 0
-938 -612 0
938 612 0
-939 -615 0
939 615 0
-940 -618 0
940 618 0
-941 -621 0
941 621 0
-942 -624 0
942 624 0
-943 -627 0
943 627 0
-944 -630 0
944 630 0
-945 -633 0
945 633 0
-946 -636 0
946 636 0
-947 -639 0
947 639 0
-948 -642 0
948 642 0
-949 -644 0
949 644 0
-950 -647 0
950 647 0
-951 -650 0
951 650 0
-952 -653 0
952 653 0
-953 -656 0
953 656 0
-954 -659 0
954 659 0
-955 -662 0
955 662 0
-956 -665 0
956 665 0
-957 -668 0
957 668 0
-958 -671 0
958 671 0
-959 -674 0
959 674 0
-960 -677 0
960 677 0
-961 -680 0
961 680 0
-962 -683 0
962 683 0
-963 -686 0
963 686 0
-964 -689 0
964 689 0
-965 -692 0
965 692 0
-966 -695 0
966 695 0
-967 -698 0
967 698 0
699 0
